NAME: PointSet_Angle_35_10
TYPE: TSP
COMMENT: Points chosen discrete uniformly at random out of ${0, \ldots, 500}^2$.
DIMENSION: 35
EDGE_WEIGHT_TYPE: EUC_2D
NODE_COORD_SECTION
1 336 457
2 211 0
3 58 477
4 372 192
5 342 409
6 357 467
7 56 179
8 60 322
9 358 80
10 441 160
11 419 173
12 301 425
13 176 396
14 20 61
15 346 81
16 337 181
17 37 48
18 181 96
19 271 299
20 34 359
21 207 137
22 325 10
23 316 385
24 332 421
25 212 18
26 80 130
27 192 127
28 301 114
29 22 67
30 175 114
31 395 12
32 41 433
33 307 469
34 275 77
35 267 309
EOF
